NAME : rat99.tsp
COMMENT : Optimal tour for rat99.tsp
TYPE : TOUR
DIMENSION : 99
Total Length: 1300.6692848100204
TOUR_SECTION
1
2
10
20
19
28
37
29
30
31
32
41
40
39
48
38
47
46
55
56
57
58
59
65
64
74
73
75
66
67
68
78
77
76
85
84
83
82
91
92
93
94
95
86
87
88
96
97
98
99
90
89
79
69
70
71
80
81
72
63
62
61
60
49
50
51
52
53
54
45
44
34
43
42
33
35
36
27
26
25
24
23
15
16
17
18
9
8
7
6
5
14
4
3
11
12
13
22
21
-1
EOF
